nN = 5;
nR = 25;
nH = 2;

a = [[16, 18, 22, 17, 21, 18, 15, 20, 16, 17, 17, 20, 23, 18, 24, 25, 22, 20, 20, 23, 25, 16, 17, 24, 18], [23, 15, 16, 16, 15, 21, 20, 25, 18, 16, 25, 15, 20, 18, 16, 16, 20, 17, 17, 22, 23, 22, 20, 17, 18], [21, 20, 22, 20, 24, 24, 24, 23, 18, 15, 18, 17, 19, 17, 21, 25, 21, 16, 22, 16, 17, 25, 20, 18, 19], [21, 18, 22, 24, 24, 24, 22, 21, 20, 15, 20, 18, 25, 24, 25, 15, 19, 15, 21, 23, 23, 24, 20, 17, 15], [18, 19, 24, 16, 17, 16, 17, 22, 23, 24, 15, 20, 23, 17, 21, 24, 23, 22, 17, 16, 25, 15, 20, 23, 16]];
c = [[[0, 0, 0, 0, 0, 0, 0, 0, 0, 0, 0, 0, 0, 0, 0, 0, 0, 0, 0, 0, 0, 0, 0, 0, 0], [32, 47, 31, 36, 48, 40, 42, 33, 43, 42, 36, 43, 48, 43, 49, 30, 42, 41, 30, 40, 48, 33, 50, 46, 41], [50, 45, 32, 33, 41, 34, 45, 34, 41, 32, 34, 39, 44, 38, 32, 42, 42, 31, 43, 43, 41, 35, 41, 41, 42], [50, 32, 38, 42, 40, 47, 34, 40, 33, 47, 44, 46, 47, 32, 49, 44, 34, 46, 46, 34, 38, 40, 39, 42, 41], [38, 32, 36, 48, 34, 39, 39, 45, 50, 36, 43, 42, 33, 43, 42, 41, 34, 33, 42, 46, 37, 40, 36, 41, 30]], [[0, 0, 0, 0, 0, 0, 0, 0, 0, 0, 0, 0, 0, 0, 0, 0, 0, 0, 0, 0, 0, 0, 0, 0, 0], [0, 0, 0, 0, 0, 0, 0, 0, 0, 0, 0, 0, 0, 0, 0, 0, 0, 0, 0, 0, 0, 0, 0, 0, 0], [50, 31, 42, 47, 39, 31, 36, 47, 33, 39, 41, 45, 48, 31, 35, 37, 34, 48, 43, 43, 35, 38, 48, 38, 35], [41, 30, 48, 50, 47, 50, 49, 47, 46, 46, 31, 43, 32, 49, 46, 39, 39, 34, 47, 40, 45, 43, 44, 37, 50], [39, 30, 46, 40, 34, 31, 31, 45, 46, 46, 42, 43, 40, 37, 37, 47, 35, 38, 36, 49, 31, 49, 42, 36, 49]], [[0, 0, 0, 0, 0, 0, 0, 0, 0, 0, 0, 0, 0, 0, 0, 0, 0, 0, 0, 0, 0, 0, 0, 0, 0], [0, 0, 0, 0, 0, 0, 0, 0, 0, 0, 0, 0, 0, 0, 0, 0, 0, 0, 0, 0, 0, 0, 0, 0, 0], [0, 0, 0, 0, 0, 0, 0, 0, 0, 0, 0, 0, 0, 0, 0, 0, 0, 0, 0, 0, 0, 0, 0, 0, 0], [33, 47, 50, 48, 41, 32, 41, 36, 47, 35, 46, 32, 47, 42, 46, 30, 40, 38, 43, 41, 33, 36, 43, 46, 42], [44, 50, 39, 32, 45, 50, 39, 42, 47, 33, 35, 47, 42, 30, 31, 31, 35, 31, 43, 30, 41, 49, 30, 46, 46]], [[0, 0, 0, 0, 0, 0, 0, 0, 0, 0, 0, 0, 0, 0, 0, 0, 0, 0, 0, 0, 0, 0, 0, 0, 0], [0, 0, 0, 0, 0, 0, 0, 0, 0, 0, 0, 0, 0, 0, 0, 0, 0, 0, 0, 0, 0, 0, 0, 0, 0], [0, 0, 0, 0, 0, 0, 0, 0, 0, 0, 0, 0, 0, 0, 0, 0, 0, 0, 0, 0, 0, 0, 0, 0, 0], [0, 0, 0, 0, 0, 0, 0, 0, 0, 0, 0, 0, 0, 0, 0, 0, 0, 0, 0, 0, 0, 0, 0, 0, 0], [45, 38, 36, 32, 30, 31, 38, 46, 40, 43, 33, 31, 30, 35, 39, 35, 44, 45, 35, 45, 47, 44, 37, 39, 50]], [[0, 0, 0, 0, 0, 0, 0, 0, 0, 0, 0, 0, 0, 0, 0, 0, 0, 0, 0, 0, 0, 0, 0, 0, 0], [0, 0, 0, 0, 0, 0, 0, 0, 0, 0, 0, 0, 0, 0, 0, 0, 0, 0, 0, 0, 0, 0, 0, 0, 0], [0, 0, 0, 0, 0, 0, 0, 0, 0, 0, 0, 0, 0, 0, 0, 0, 0, 0, 0, 0, 0, 0, 0, 0, 0], [0, 0, 0, 0, 0, 0, 0, 0, 0, 0, 0, 0, 0, 0, 0, 0, 0, 0, 0, 0, 0, 0, 0, 0, 0], [0, 0, 0, 0, 0, 0, 0, 0, 0, 0, 0, 0, 0, 0, 0, 0, 0, 0, 0, 0, 0, 0, 0, 0, 0]]];

q = [[[21, 124], [18, 113], [18, 111], [5, 113], [12, 125], [23, 118], [21, 125], [12, 108], [16, 115], [20, 117], [21, 109], [23, 109], [12, 119], [9, 123], [24, 110], [6, 117], [22, 118], [22, 114], [12, 116], [20, 115], [5, 121], [11, 121], [8, 113], [6, 111], [14, 113]], [[9, 116], [18, 115], [18, 123], [16, 106], [22, 115], [8, 111], [10, 124], [17, 116], [15, 110], [13, 113], [22, 119], [20, 125], [19, 112], [7, 121], [10, 111], [25, 115], [15, 124], [10, 111], [21, 117], [10, 105], [23, 105], [8, 115], [6, 124], [20, 123], [11, 118]], [[23, 123], [8, 113], [16, 119], [25, 112], [5, 118], [14, 115], [18, 119], [12, 106], [17, 112], [21, 113], [25, 107], [12, 118], [16, 114], [24, 107], [5, 118], [18, 119], [16, 106], [21, 123], [23, 107], [9, 113], [21, 116], [25, 115], [8, 112], [5, 115], [16, 125]], [[14, 118], [5, 111], [18, 113], [11, 105], [15, 122], [10, 111], [10, 115], [11, 105], [6, 112], [16, 123], [7, 109], [17, 115], [20, 111], [7, 114], [24, 113], [12, 113], [6, 116], [18, 119], [8, 118], [12, 121], [17, 121], [6, 115], [25, 111], [16, 125], [23, 110]], [[18, 109], [18, 106], [7, 119], [21, 123], [23, 114], [13, 109], [5, 125], [15, 117], [20, 105], [24, 113], [19, 116], [21, 114], [23, 120], [10, 108], [22, 106], [23, 107], [11, 120], [22, 114], [25, 109], [7, 116], [21, 114], [11, 124], [23, 119], [13, 120], [22, 108]]];
Q = [[60, 464], [59, 464], [64, 459], [53, 459], [69, 457]];
